10
0 70 50 13 9 41 54 23 70 91 
99 0 76 69 95 48 50 100 80 95 
42 61 0 79 66 100 82 100 60 40 
58 17 36 0 31 92 39 70 10 85 
50 77 44 98 0 91 29 2 75 80 
29 44 49 82 72 0 94 99 93 4 
44 7 25 75 45 54 0 25 9 82 
53 33 50 70 54 67 84 0 73 92 
57 67 61 30 72 85 32 37 0 37 
56 76 56 9 14 80 75 90 47 0 
